\ Model class4_example1
\ LP format - for model browsing. Use MPS format to capture full model detail.
Minimize
  y[0] + y[1] + y[2] + y[3] + y[4] + y[5] + y[6] + y[7] + y[8] + y[9]
   + y[10] + y[11] + y[12] + y[13] + y[14] + y[15] + y[16] + y[17] + y[18]
   + y[19] + y[20] + y[21] + y[22] + y[23] + y[24] + y[25] + y[26] + y[27]
   + y[28] + y[29] + y[30] + y[31] + y[32] + y[33] + y[34] + y[35] + y[36]
   + y[37] + y[38] + y[39] + y[40] + y[41] + y[42] + y[43] + y[44] + y[45]
   + y[46] + y[47] + y[48] + y[49] + y[50] + y[51] + y[52] + y[53] + y[54]
   + y[55] + y[56] + y[57] + y[58] + y[59] + y[60] + y[61] + y[62] + y[63]
   + y[64] + y[65] + y[66] + y[67] + y[68] + y[69] + y[70] + y[71] + y[72]
   + y[73] + y[74] + y[75] + y[76] + y[77] + y[78] + y[79] + y[80] + y[81]
   + y[82] + y[83] + y[84] + y[85] + y[86] + y[87] + y[88] + y[89] + y[90]
   + y[91] + y[92] + y[93] + y[94] + y[95] + y[96] + y[97] + y[98] + y[99]
Subject To
 c0[3m]: x[3m,0] + x[3m,1] + x[3m,2] + x[3m,3] + x[3m,4] + x[3m,5]
   + x[3m,6] + x[3m,7] + x[3m,8] + x[3m,9] + x[3m,10] + x[3m,11] + x[3m,12]
   + x[3m,13] + x[3m,14] + x[3m,15] + x[3m,16] + x[3m,17] + x[3m,18]
   + x[3m,19] + x[3m,20] + x[3m,21] + x[3m,22] + x[3m,23] + x[3m,24]
   + x[3m,25] + x[3m,26] + x[3m,27] + x[3m,28] + x[3m,29] + x[3m,30]
   + x[3m,31] + x[3m,32] + x[3m,33] + x[3m,34] + x[3m,35] + x[3m,36]
   + x[3m,37] + x[3m,38] + x[3m,39] + x[3m,40] + x[3m,41] + x[3m,42]
   + x[3m,43] + x[3m,44] + x[3m,45] + x[3m,46] + x[3m,47] + x[3m,48]
   + x[3m,49] + x[3m,50] + x[3m,51] + x[3m,52] + x[3m,53] + x[3m,54]
   + x[3m,55] + x[3m,56] + x[3m,57] + x[3m,58] + x[3m,59] + x[3m,60]
   + x[3m,61] + x[3m,62] + x[3m,63] + x[3m,64] + x[3m,65] + x[3m,66]
   + x[3m,67] + x[3m,68] + x[3m,69] + x[3m,70] + x[3m,71] + x[3m,72]
   + x[3m,73] + x[3m,74] + x[3m,75] + x[3m,76] + x[3m,77] + x[3m,78]
   + x[3m,79] + x[3m,80] + x[3m,81] + x[3m,82] + x[3m,83] + x[3m,84]
   + x[3m,85] + x[3m,86] + x[3m,87] + x[3m,88] + x[3m,89] + x[3m,90]
   + x[3m,91] + x[3m,92] + x[3m,93] + x[3m,94] + x[3m,95] + x[3m,96]
   + x[3m,97] + x[3m,98] + x[3m,99] >= 25
 c0[7m]: x[7m,0] + x[7m,1] + x[7m,2] + x[7m,3] + x[7m,4] + x[7m,5]
   + x[7m,6] + x[7m,7] + x[7m,8] + x[7m,9] + x[7m,10] + x[7m,11] + x[7m,12]
   + x[7m,13] + x[7m,14] + x[7m,15] + x[7m,16] + x[7m,17] + x[7m,18]
   + x[7m,19] + x[7m,20] + x[7m,21] + x[7m,22] + x[7m,23] + x[7m,24]
   + x[7m,25] + x[7m,26] + x[7m,27] + x[7m,28] + x[7m,29] + x[7m,30]
   + x[7m,31] + x[7m,32] + x[7m,33] + x[7m,34] + x[7m,35] + x[7m,36]
   + x[7m,37] + x[7m,38] + x[7m,39] + x[7m,40] + x[7m,41] + x[7m,42]
   + x[7m,43] + x[7m,44] + x[7m,45] + x[7m,46] + x[7m,47] + x[7m,48]
   + x[7m,49] + x[7m,50] + x[7m,51] + x[7m,52] + x[7m,53] + x[7m,54]
   + x[7m,55] + x[7m,56] + x[7m,57] + x[7m,58] + x[7m,59] + x[7m,60]
   + x[7m,61] + x[7m,62] + x[7m,63] + x[7m,64] + x[7m,65] + x[7m,66]
   + x[7m,67] + x[7m,68] + x[7m,69] + x[7m,70] + x[7m,71] + x[7m,72]
   + x[7m,73] + x[7m,74] + x[7m,75] + x[7m,76] + x[7m,77] + x[7m,78]
   + x[7m,79] + x[7m,80] + x[7m,81] + x[7m,82] + x[7m,83] + x[7m,84]
   + x[7m,85] + x[7m,86] + x[7m,87] + x[7m,88] + x[7m,89] + x[7m,90]
   + x[7m,91] + x[7m,92] + x[7m,93] + x[7m,94] + x[7m,95] + x[7m,96]
   + x[7m,97] + x[7m,98] + x[7m,99] >= 30
 c0[9m]: x[9m,0] + x[9m,1] + x[9m,2] + x[9m,3] + x[9m,4] + x[9m,5]
   + x[9m,6] + x[9m,7] + x[9m,8] + x[9m,9] + x[9m,10] + x[9m,11] + x[9m,12]
   + x[9m,13] + x[9m,14] + x[9m,15] + x[9m,16] + x[9m,17] + x[9m,18]
   + x[9m,19] + x[9m,20] + x[9m,21] + x[9m,22] + x[9m,23] + x[9m,24]
   + x[9m,25] + x[9m,26] + x[9m,27] + x[9m,28] + x[9m,29] + x[9m,30]
   + x[9m,31] + x[9m,32] + x[9m,33] + x[9m,34] + x[9m,35] + x[9m,36]
   + x[9m,37] + x[9m,38] + x[9m,39] + x[9m,40] + x[9m,41] + x[9m,42]
   + x[9m,43] + x[9m,44] + x[9m,45] + x[9m,46] + x[9m,47] + x[9m,48]
   + x[9m,49] + x[9m,50] + x[9m,51] + x[9m,52] + x[9m,53] + x[9m,54]
   + x[9m,55] + x[9m,56] + x[9m,57] + x[9m,58] + x[9m,59] + x[9m,60]
   + x[9m,61] + x[9m,62] + x[9m,63] + x[9m,64] + x[9m,65] + x[9m,66]
   + x[9m,67] + x[9m,68] + x[9m,69] + x[9m,70] + x[9m,71] + x[9m,72]
   + x[9m,73] + x[9m,74] + x[9m,75] + x[9m,76] + x[9m,77] + x[9m,78]
   + x[9m,79] + x[9m,80] + x[9m,81] + x[9m,82] + x[9m,83] + x[9m,84]
   + x[9m,85] + x[9m,86] + x[9m,87] + x[9m,88] + x[9m,89] + x[9m,90]
   + x[9m,91] + x[9m,92] + x[9m,93] + x[9m,94] + x[9m,95] + x[9m,96]
   + x[9m,97] + x[9m,98] + x[9m,99] >= 14
 c0[16m]: x[16m,0] + x[16m,1] + x[16m,2] + x[16m,3] + x[16m,4] + x[16m,5]
   + x[16m,6] + x[16m,7] + x[16m,8] + x[16m,9] + x[16m,10] + x[16m,11]
   + x[16m,12] + x[16m,13] + x[16m,14] + x[16m,15] + x[16m,16] + x[16m,17]
   + x[16m,18] + x[16m,19] + x[16m,20] + x[16m,21] + x[16m,22] + x[16m,23]
   + x[16m,24] + x[16m,25] + x[16m,26] + x[16m,27] + x[16m,28] + x[16m,29]
   + x[16m,30] + x[16m,31] + x[16m,32] + x[16m,33] + x[16m,34] + x[16m,35]
   + x[16m,36] + x[16m,37] + x[16m,38] + x[16m,39] + x[16m,40] + x[16m,41]
   + x[16m,42] + x[16m,43] + x[16m,44] + x[16m,45] + x[16m,46] + x[16m,47]
   + x[16m,48] + x[16m,49] + x[16m,50] + x[16m,51] + x[16m,52] + x[16m,53]
   + x[16m,54] + x[16m,55] + x[16m,56] + x[16m,57] + x[16m,58] + x[16m,59]
   + x[16m,60] + x[16m,61] + x[16m,62] + x[16m,63] + x[16m,64] + x[16m,65]
   + x[16m,66] + x[16m,67] + x[16m,68] + x[16m,69] + x[16m,70] + x[16m,71]
   + x[16m,72] + x[16m,73] + x[16m,74] + x[16m,75] + x[16m,76] + x[16m,77]
   + x[16m,78] + x[16m,79] + x[16m,80] + x[16m,81] + x[16m,82] + x[16m,83]
   + x[16m,84] + x[16m,85] + x[16m,86] + x[16m,87] + x[16m,88] + x[16m,89]
   + x[16m,90] + x[16m,91] + x[16m,92] + x[16m,93] + x[16m,94] + x[16m,95]
   + x[16m,96] + x[16m,97] + x[16m,98] + x[16m,99] >= 8
 c1[0]: 3 x[3m,0] + 7 x[7m,0] + 9 x[9m,0] + 16 x[16m,0] - 20 y[0] <= 0
 c1[1]: 3 x[3m,1] + 7 x[7m,1] + 9 x[9m,1] + 16 x[16m,1] - 20 y[1] <= 0
 c1[2]: 3 x[3m,2] + 7 x[7m,2] + 9 x[9m,2] + 16 x[16m,2] - 20 y[2] <= 0
 c1[3]: 3 x[3m,3] + 7 x[7m,3] + 9 x[9m,3] + 16 x[16m,3] - 20 y[3] <= 0
 c1[4]: 3 x[3m,4] + 7 x[7m,4] + 9 x[9m,4] + 16 x[16m,4] - 20 y[4] <= 0
 c1[5]: 3 x[3m,5] + 7 x[7m,5] + 9 x[9m,5] + 16 x[16m,5] - 20 y[5] <= 0
 c1[6]: 3 x[3m,6] + 7 x[7m,6] + 9 x[9m,6] + 16 x[16m,6] - 20 y[6] <= 0
 c1[7]: 3 x[3m,7] + 7 x[7m,7] + 9 x[9m,7] + 16 x[16m,7] - 20 y[7] <= 0
 c1[8]: 3 x[3m,8] + 7 x[7m,8] + 9 x[9m,8] + 16 x[16m,8] - 20 y[8] <= 0
 c1[9]: 3 x[3m,9] + 7 x[7m,9] + 9 x[9m,9] + 16 x[16m,9] - 20 y[9] <= 0
 c1[10]: 3 x[3m,10] + 7 x[7m,10] + 9 x[9m,10] + 16 x[16m,10] - 20 y[10]
   <= 0
 c1[11]: 3 x[3m,11] + 7 x[7m,11] + 9 x[9m,11] + 16 x[16m,11] - 20 y[11]
   <= 0
 c1[12]: 3 x[3m,12] + 7 x[7m,12] + 9 x[9m,12] + 16 x[16m,12] - 20 y[12]
   <= 0
 c1[13]: 3 x[3m,13] + 7 x[7m,13] + 9 x[9m,13] + 16 x[16m,13] - 20 y[13]
   <= 0
 c1[14]: 3 x[3m,14] + 7 x[7m,14] + 9 x[9m,14] + 16 x[16m,14] - 20 y[14]
   <= 0
 c1[15]: 3 x[3m,15] + 7 x[7m,15] + 9 x[9m,15] + 16 x[16m,15] - 20 y[15]
   <= 0
 c1[16]: 3 x[3m,16] + 7 x[7m,16] + 9 x[9m,16] + 16 x[16m,16] - 20 y[16]
   <= 0
 c1[17]: 3 x[3m,17] + 7 x[7m,17] + 9 x[9m,17] + 16 x[16m,17] - 20 y[17]
   <= 0
 c1[18]: 3 x[3m,18] + 7 x[7m,18] + 9 x[9m,18] + 16 x[16m,18] - 20 y[18]
   <= 0
 c1[19]: 3 x[3m,19] + 7 x[7m,19] + 9 x[9m,19] + 16 x[16m,19] - 20 y[19]
   <= 0
 c1[20]: 3 x[3m,20] + 7 x[7m,20] + 9 x[9m,20] + 16 x[16m,20] - 20 y[20]
   <= 0
 c1[21]: 3 x[3m,21] + 7 x[7m,21] + 9 x[9m,21] + 16 x[16m,21] - 20 y[21]
   <= 0
 c1[22]: 3 x[3m,22] + 7 x[7m,22] + 9 x[9m,22] + 16 x[16m,22] - 20 y[22]
   <= 0
 c1[23]: 3 x[3m,23] + 7 x[7m,23] + 9 x[9m,23] + 16 x[16m,23] - 20 y[23]
   <= 0
 c1[24]: 3 x[3m,24] + 7 x[7m,24] + 9 x[9m,24] + 16 x[16m,24] - 20 y[24]
   <= 0
 c1[25]: 3 x[3m,25] + 7 x[7m,25] + 9 x[9m,25] + 16 x[16m,25] - 20 y[25]
   <= 0
 c1[26]: 3 x[3m,26] + 7 x[7m,26] + 9 x[9m,26] + 16 x[16m,26] - 20 y[26]
   <= 0
 c1[27]: 3 x[3m,27] + 7 x[7m,27] + 9 x[9m,27] + 16 x[16m,27] - 20 y[27]
   <= 0
 c1[28]: 3 x[3m,28] + 7 x[7m,28] + 9 x[9m,28] + 16 x[16m,28] - 20 y[28]
   <= 0
 c1[29]: 3 x[3m,29] + 7 x[7m,29] + 9 x[9m,29] + 16 x[16m,29] - 20 y[29]
   <= 0
 c1[30]: 3 x[3m,30] + 7 x[7m,30] + 9 x[9m,30] + 16 x[16m,30] - 20 y[30]
   <= 0
 c1[31]: 3 x[3m,31] + 7 x[7m,31] + 9 x[9m,31] + 16 x[16m,31] - 20 y[31]
   <= 0
 c1[32]: 3 x[3m,32] + 7 x[7m,32] + 9 x[9m,32] + 16 x[16m,32] - 20 y[32]
   <= 0
 c1[33]: 3 x[3m,33] + 7 x[7m,33] + 9 x[9m,33] + 16 x[16m,33] - 20 y[33]
   <= 0
 c1[34]: 3 x[3m,34] + 7 x[7m,34] + 9 x[9m,34] + 16 x[16m,34] - 20 y[34]
   <= 0
 c1[35]: 3 x[3m,35] + 7 x[7m,35] + 9 x[9m,35] + 16 x[16m,35] - 20 y[35]
   <= 0
 c1[36]: 3 x[3m,36] + 7 x[7m,36] + 9 x[9m,36] + 16 x[16m,36] - 20 y[36]
   <= 0
 c1[37]: 3 x[3m,37] + 7 x[7m,37] + 9 x[9m,37] + 16 x[16m,37] - 20 y[37]
   <= 0
 c1[38]: 3 x[3m,38] + 7 x[7m,38] + 9 x[9m,38] + 16 x[16m,38] - 20 y[38]
   <= 0
 c1[39]: 3 x[3m,39] + 7 x[7m,39] + 9 x[9m,39] + 16 x[16m,39] - 20 y[39]
   <= 0
 c1[40]: 3 x[3m,40] + 7 x[7m,40] + 9 x[9m,40] + 16 x[16m,40] - 20 y[40]
   <= 0
 c1[41]: 3 x[3m,41] + 7 x[7m,41] + 9 x[9m,41] + 16 x[16m,41] - 20 y[41]
   <= 0
 c1[42]: 3 x[3m,42] + 7 x[7m,42] + 9 x[9m,42] + 16 x[16m,42] - 20 y[42]
   <= 0
 c1[43]: 3 x[3m,43] + 7 x[7m,43] + 9 x[9m,43] + 16 x[16m,43] - 20 y[43]
   <= 0
 c1[44]: 3 x[3m,44] + 7 x[7m,44] + 9 x[9m,44] + 16 x[16m,44] - 20 y[44]
   <= 0
 c1[45]: 3 x[3m,45] + 7 x[7m,45] + 9 x[9m,45] + 16 x[16m,45] - 20 y[45]
   <= 0
 c1[46]: 3 x[3m,46] + 7 x[7m,46] + 9 x[9m,46] + 16 x[16m,46] - 20 y[46]
   <= 0
 c1[47]: 3 x[3m,47] + 7 x[7m,47] + 9 x[9m,47] + 16 x[16m,47] - 20 y[47]
   <= 0
 c1[48]: 3 x[3m,48] + 7 x[7m,48] + 9 x[9m,48] + 16 x[16m,48] - 20 y[48]
   <= 0
 c1[49]: 3 x[3m,49] + 7 x[7m,49] + 9 x[9m,49] + 16 x[16m,49] - 20 y[49]
   <= 0
 c1[50]: 3 x[3m,50] + 7 x[7m,50] + 9 x[9m,50] + 16 x[16m,50] - 20 y[50]
   <= 0
 c1[51]: 3 x[3m,51] + 7 x[7m,51] + 9 x[9m,51] + 16 x[16m,51] - 20 y[51]
   <= 0
 c1[52]: 3 x[3m,52] + 7 x[7m,52] + 9 x[9m,52] + 16 x[16m,52] - 20 y[52]
   <= 0
 c1[53]: 3 x[3m,53] + 7 x[7m,53] + 9 x[9m,53] + 16 x[16m,53] - 20 y[53]
   <= 0
 c1[54]: 3 x[3m,54] + 7 x[7m,54] + 9 x[9m,54] + 16 x[16m,54] - 20 y[54]
   <= 0
 c1[55]: 3 x[3m,55] + 7 x[7m,55] + 9 x[9m,55] + 16 x[16m,55] - 20 y[55]
   <= 0
 c1[56]: 3 x[3m,56] + 7 x[7m,56] + 9 x[9m,56] + 16 x[16m,56] - 20 y[56]
   <= 0
 c1[57]: 3 x[3m,57] + 7 x[7m,57] + 9 x[9m,57] + 16 x[16m,57] - 20 y[57]
   <= 0
 c1[58]: 3 x[3m,58] + 7 x[7m,58] + 9 x[9m,58] + 16 x[16m,58] - 20 y[58]
   <= 0
 c1[59]: 3 x[3m,59] + 7 x[7m,59] + 9 x[9m,59] + 16 x[16m,59] - 20 y[59]
   <= 0
 c1[60]: 3 x[3m,60] + 7 x[7m,60] + 9 x[9m,60] + 16 x[16m,60] - 20 y[60]
   <= 0
 c1[61]: 3 x[3m,61] + 7 x[7m,61] + 9 x[9m,61] + 16 x[16m,61] - 20 y[61]
   <= 0
 c1[62]: 3 x[3m,62] + 7 x[7m,62] + 9 x[9m,62] + 16 x[16m,62] - 20 y[62]
   <= 0
 c1[63]: 3 x[3m,63] + 7 x[7m,63] + 9 x[9m,63] + 16 x[16m,63] - 20 y[63]
   <= 0
 c1[64]: 3 x[3m,64] + 7 x[7m,64] + 9 x[9m,64] + 16 x[16m,64] - 20 y[64]
   <= 0
 c1[65]: 3 x[3m,65] + 7 x[7m,65] + 9 x[9m,65] + 16 x[16m,65] - 20 y[65]
   <= 0
 c1[66]: 3 x[3m,66] + 7 x[7m,66] + 9 x[9m,66] + 16 x[16m,66] - 20 y[66]
   <= 0
 c1[67]: 3 x[3m,67] + 7 x[7m,67] + 9 x[9m,67] + 16 x[16m,67] - 20 y[67]
   <= 0
 c1[68]: 3 x[3m,68] + 7 x[7m,68] + 9 x[9m,68] + 16 x[16m,68] - 20 y[68]
   <= 0
 c1[69]: 3 x[3m,69] + 7 x[7m,69] + 9 x[9m,69] + 16 x[16m,69] - 20 y[69]
   <= 0
 c1[70]: 3 x[3m,70] + 7 x[7m,70] + 9 x[9m,70] + 16 x[16m,70] - 20 y[70]
   <= 0
 c1[71]: 3 x[3m,71] + 7 x[7m,71] + 9 x[9m,71] + 16 x[16m,71] - 20 y[71]
   <= 0
 c1[72]: 3 x[3m,72] + 7 x[7m,72] + 9 x[9m,72] + 16 x[16m,72] - 20 y[72]
   <= 0
 c1[73]: 3 x[3m,73] + 7 x[7m,73] + 9 x[9m,73] + 16 x[16m,73] - 20 y[73]
   <= 0
 c1[74]: 3 x[3m,74] + 7 x[7m,74] + 9 x[9m,74] + 16 x[16m,74] - 20 y[74]
   <= 0
 c1[75]: 3 x[3m,75] + 7 x[7m,75] + 9 x[9m,75] + 16 x[16m,75] - 20 y[75]
   <= 0
 c1[76]: 3 x[3m,76] + 7 x[7m,76] + 9 x[9m,76] + 16 x[16m,76] - 20 y[76]
   <= 0
 c1[77]: 3 x[3m,77] + 7 x[7m,77] + 9 x[9m,77] + 16 x[16m,77] - 20 y[77]
   <= 0
 c1[78]: 3 x[3m,78] + 7 x[7m,78] + 9 x[9m,78] + 16 x[16m,78] - 20 y[78]
   <= 0
 c1[79]: 3 x[3m,79] + 7 x[7m,79] + 9 x[9m,79] + 16 x[16m,79] - 20 y[79]
   <= 0
 c1[80]: 3 x[3m,80] + 7 x[7m,80] + 9 x[9m,80] + 16 x[16m,80] - 20 y[80]
   <= 0
 c1[81]: 3 x[3m,81] + 7 x[7m,81] + 9 x[9m,81] + 16 x[16m,81] - 20 y[81]
   <= 0
 c1[82]: 3 x[3m,82] + 7 x[7m,82] + 9 x[9m,82] + 16 x[16m,82] - 20 y[82]
   <= 0
 c1[83]: 3 x[3m,83] + 7 x[7m,83] + 9 x[9m,83] + 16 x[16m,83] - 20 y[83]
   <= 0
 c1[84]: 3 x[3m,84] + 7 x[7m,84] + 9 x[9m,84] + 16 x[16m,84] - 20 y[84]
   <= 0
 c1[85]: 3 x[3m,85] + 7 x[7m,85] + 9 x[9m,85] + 16 x[16m,85] - 20 y[85]
   <= 0
 c1[86]: 3 x[3m,86] + 7 x[7m,86] + 9 x[9m,86] + 16 x[16m,86] - 20 y[86]
   <= 0
 c1[87]: 3 x[3m,87] + 7 x[7m,87] + 9 x[9m,87] + 16 x[16m,87] - 20 y[87]
   <= 0
 c1[88]: 3 x[3m,88] + 7 x[7m,88] + 9 x[9m,88] + 16 x[16m,88] - 20 y[88]
   <= 0
 c1[89]: 3 x[3m,89] + 7 x[7m,89] + 9 x[9m,89] + 16 x[16m,89] - 20 y[89]
   <= 0
 c1[90]: 3 x[3m,90] + 7 x[7m,90] + 9 x[9m,90] + 16 x[16m,90] - 20 y[90]
   <= 0
 c1[91]: 3 x[3m,91] + 7 x[7m,91] + 9 x[9m,91] + 16 x[16m,91] - 20 y[91]
   <= 0
 c1[92]: 3 x[3m,92] + 7 x[7m,92] + 9 x[9m,92] + 16 x[16m,92] - 20 y[92]
   <= 0
 c1[93]: 3 x[3m,93] + 7 x[7m,93] + 9 x[9m,93] + 16 x[16m,93] - 20 y[93]
   <= 0
 c1[94]: 3 x[3m,94] + 7 x[7m,94] + 9 x[9m,94] + 16 x[16m,94] - 20 y[94]
   <= 0
 c1[95]: 3 x[3m,95] + 7 x[7m,95] + 9 x[9m,95] + 16 x[16m,95] - 20 y[95]
   <= 0
 c1[96]: 3 x[3m,96] + 7 x[7m,96] + 9 x[9m,96] + 16 x[16m,96] - 20 y[96]
   <= 0
 c1[97]: 3 x[3m,97] + 7 x[7m,97] + 9 x[9m,97] + 16 x[16m,97] - 20 y[97]
   <= 0
 c1[98]: 3 x[3m,98] + 7 x[7m,98] + 9 x[9m,98] + 16 x[16m,98] - 20 y[98]
   <= 0
 c1[99]: 3 x[3m,99] + 7 x[7m,99] + 9 x[9m,99] + 16 x[16m,99] - 20 y[99]
   <= 0
Bounds
Binaries
 y[0] y[1] y[2] y[3] y[4] y[5] y[6] y[7] y[8] y[9] y[10] y[11] y[12] y[13]
 y[14] y[15] y[16] y[17] y[18] y[19] y[20] y[21] y[22] y[23] y[24] y[25]
 y[26] y[27] y[28] y[29] y[30] y[31] y[32] y[33] y[34] y[35] y[36] y[37]
 y[38] y[39] y[40] y[41] y[42] y[43] y[44] y[45] y[46] y[47] y[48] y[49]
 y[50] y[51] y[52] y[53] y[54] y[55] y[56] y[57] y[58] y[59] y[60] y[61]
 y[62] y[63] y[64] y[65] y[66] y[67] y[68] y[69] y[70] y[71] y[72] y[73]
 y[74] y[75] y[76] y[77] y[78] y[79] y[80] y[81] y[82] y[83] y[84] y[85]
 y[86] y[87] y[88] y[89] y[90] y[91] y[92] y[93] y[94] y[95] y[96] y[97]
 y[98] y[99]
Generals
 x[3m,0] x[3m,1] x[3m,2] x[3m,3] x[3m,4] x[3m,5] x[3m,6] x[3m,7] x[3m,8]
 x[3m,9] x[3m,10] x[3m,11] x[3m,12] x[3m,13] x[3m,14] x[3m,15] x[3m,16]
 x[3m,17] x[3m,18] x[3m,19] x[3m,20] x[3m,21] x[3m,22] x[3m,23] x[3m,24]
 x[3m,25] x[3m,26] x[3m,27] x[3m,28] x[3m,29] x[3m,30] x[3m,31] x[3m,32]
 x[3m,33] x[3m,34] x[3m,35] x[3m,36] x[3m,37] x[3m,38] x[3m,39] x[3m,40]
 x[3m,41] x[3m,42] x[3m,43] x[3m,44] x[3m,45] x[3m,46] x[3m,47] x[3m,48]
 x[3m,49] x[3m,50] x[3m,51] x[3m,52] x[3m,53] x[3m,54] x[3m,55] x[3m,56]
 x[3m,57] x[3m,58] x[3m,59] x[3m,60] x[3m,61] x[3m,62] x[3m,63] x[3m,64]
 x[3m,65] x[3m,66] x[3m,67] x[3m,68] x[3m,69] x[3m,70] x[3m,71] x[3m,72]
 x[3m,73] x[3m,74] x[3m,75] x[3m,76] x[3m,77] x[3m,78] x[3m,79] x[3m,80]
 x[3m,81] x[3m,82] x[3m,83] x[3m,84] x[3m,85] x[3m,86] x[3m,87] x[3m,88]
 x[3m,89] x[3m,90] x[3m,91] x[3m,92] x[3m,93] x[3m,94] x[3m,95] x[3m,96]
 x[3m,97] x[3m,98] x[3m,99] x[7m,0] x[7m,1] x[7m,2] x[7m,3] x[7m,4] x[7m,5]
 x[7m,6] x[7m,7] x[7m,8] x[7m,9] x[7m,10] x[7m,11] x[7m,12] x[7m,13]
 x[7m,14] x[7m,15] x[7m,16] x[7m,17] x[7m,18] x[7m,19] x[7m,20] x[7m,21]
 x[7m,22] x[7m,23] x[7m,24] x[7m,25] x[7m,26] x[7m,27] x[7m,28] x[7m,29]
 x[7m,30] x[7m,31] x[7m,32] x[7m,33] x[7m,34] x[7m,35] x[7m,36] x[7m,37]
 x[7m,38] x[7m,39] x[7m,40] x[7m,41] x[7m,42] x[7m,43] x[7m,44] x[7m,45]
 x[7m,46] x[7m,47] x[7m,48] x[7m,49] x[7m,50] x[7m,51] x[7m,52] x[7m,53]
 x[7m,54] x[7m,55] x[7m,56] x[7m,57] x[7m,58] x[7m,59] x[7m,60] x[7m,61]
 x[7m,62] x[7m,63] x[7m,64] x[7m,65] x[7m,66] x[7m,67] x[7m,68] x[7m,69]
 x[7m,70] x[7m,71] x[7m,72] x[7m,73] x[7m,74] x[7m,75] x[7m,76] x[7m,77]
 x[7m,78] x[7m,79] x[7m,80] x[7m,81] x[7m,82] x[7m,83] x[7m,84] x[7m,85]
 x[7m,86] x[7m,87] x[7m,88] x[7m,89] x[7m,90] x[7m,91] x[7m,92] x[7m,93]
 x[7m,94] x[7m,95] x[7m,96] x[7m,97] x[7m,98] x[7m,99] x[9m,0] x[9m,1]
 x[9m,2] x[9m,3] x[9m,4] x[9m,5] x[9m,6] x[9m,7] x[9m,8] x[9m,9] x[9m,10]
 x[9m,11] x[9m,12] x[9m,13] x[9m,14] x[9m,15] x[9m,16] x[9m,17] x[9m,18]
 x[9m,19] x[9m,20] x[9m,21] x[9m,22] x[9m,23] x[9m,24] x[9m,25] x[9m,26]
 x[9m,27] x[9m,28] x[9m,29] x[9m,30] x[9m,31] x[9m,32] x[9m,33] x[9m,34]
 x[9m,35] x[9m,36] x[9m,37] x[9m,38] x[9m,39] x[9m,40] x[9m,41] x[9m,42]
 x[9m,43] x[9m,44] x[9m,45] x[9m,46] x[9m,47] x[9m,48] x[9m,49] x[9m,50]
 x[9m,51] x[9m,52] x[9m,53] x[9m,54] x[9m,55] x[9m,56] x[9m,57] x[9m,58]
 x[9m,59] x[9m,60] x[9m,61] x[9m,62] x[9m,63] x[9m,64] x[9m,65] x[9m,66]
 x[9m,67] x[9m,68] x[9m,69] x[9m,70] x[9m,71] x[9m,72] x[9m,73] x[9m,74]
 x[9m,75] x[9m,76] x[9m,77] x[9m,78] x[9m,79] x[9m,80] x[9m,81] x[9m,82]
 x[9m,83] x[9m,84] x[9m,85] x[9m,86] x[9m,87] x[9m,88] x[9m,89] x[9m,90]
 x[9m,91] x[9m,92] x[9m,93] x[9m,94] x[9m,95] x[9m,96] x[9m,97] x[9m,98]
 x[9m,99] x[16m,0] x[16m,1] x[16m,2] x[16m,3] x[16m,4] x[16m,5] x[16m,6]
 x[16m,7] x[16m,8] x[16m,9] x[16m,10] x[16m,11] x[16m,12] x[16m,13]
 x[16m,14] x[16m,15] x[16m,16] x[16m,17] x[16m,18] x[16m,19] x[16m,20]
 x[16m,21] x[16m,22] x[16m,23] x[16m,24] x[16m,25] x[16m,26] x[16m,27]
 x[16m,28] x[16m,29] x[16m,30] x[16m,31] x[16m,32] x[16m,33] x[16m,34]
 x[16m,35] x[16m,36] x[16m,37] x[16m,38] x[16m,39] x[16m,40] x[16m,41]
 x[16m,42] x[16m,43] x[16m,44] x[16m,45] x[16m,46] x[16m,47] x[16m,48]
 x[16m,49] x[16m,50] x[16m,51] x[16m,52] x[16m,53] x[16m,54] x[16m,55]
 x[16m,56] x[16m,57] x[16m,58] x[16m,59] x[16m,60] x[16m,61] x[16m,62]
 x[16m,63] x[16m,64] x[16m,65] x[16m,66] x[16m,67] x[16m,68] x[16m,69]
 x[16m,70] x[16m,71] x[16m,72] x[16m,73] x[16m,74] x[16m,75] x[16m,76]
 x[16m,77] x[16m,78] x[16m,79] x[16m,80] x[16m,81] x[16m,82] x[16m,83]
 x[16m,84] x[16m,85] x[16m,86] x[16m,87] x[16m,88] x[16m,89] x[16m,90]
 x[16m,91] x[16m,92] x[16m,93] x[16m,94] x[16m,95] x[16m,96] x[16m,97]
 x[16m,98] x[16m,99]
End
